maximize
OBJ:100x0 + 100x1 + 100x2 + 100x3 + 100x4 + 100x5 + 100x6 + 100x7 + 100x8 + 100x9 + 100x10 + 100x11 + 100x12 + 100x13 + 100x14 + 100x15 + 100x16 + 100x17 + 100x18 + 100x19 + 100x20 + 100x21 + 100x22 + 100x23 + 100x24 + 100x25 + 100x26 + 100x27 + 100x28 + 100x29 + 100x30 + 100x31 + 100x32 + 100x33 + 100x34 + 100x35 + 100x36 + 100x37 + 100x38 + 100x39 + 100x40 + 100x41 + 100x42 + 100x43 + 100x44 + 100x45 + 100x46 + 100x47 + 100x48 + 100x49 + 100x50 + 100x51 + 100x52 + 100x53 + 100x54 + 100x55 + 100x56 + 100x57 + 100x58 + 100x59 + 100x60 + 100x61 + 100x62 + 100x63 + 100x64 + 100x65 + 100x66 + 100x67 - y7_17 - y15_30 - y15_39 - y17_67 - y28_67 - y29_32 - y48_54 - y29_50 - y6_57 - y29_59 - y40_59 - y10_27 - y41_42 - y41_51 - y25_43 - y3_15 - y14_15 - y51_64 - y13_65 - y35_65 - y55_61 - y36_57 - y47_57 - y17_53 - y18_30 - y17_62 - y28_62 - y9_58 - y29_45 - y21_41 - y6_52 - y29_63 - y21_59 - y2_27 - y10_49 - y2_54 - y3_19 - y3_28 - y24_60 - y3_37 - y16_56 - y55_56 - y7_16 - y47_52 - y17_57 - y9_53 - y6_29 - y29_31 - y21_36 - y29_49 - y40_49 - y40_58 - y6_65 - y2_22 - y54_60 - y2_40 - y25_42 - y3_14 - y32_50 - y14_32 - y1_62 - y24_64 - y36_38 - y17_34 - y7_11 - y36_47 - y36_56 - y47_56 - y5_50 - y17_52 - y36_65 - y47_65 - y17_61 - y28_61 - y50_58 - y29_35 - y9_66 - y54_64 - y12_58 - y23_58 - y3_9 - y4_63 - y24_41 - y35_50 - y16_46 - y16_64 - y28_29 - y36_42 - y28_38 - y47_51 - y9_52 - y5_63 - y6_28 - y9_61 - y27_60 - y61_62 - y6_37 - y21_35 - y6_46 - y42_67 - y2_3 - y10_16 - y39_52 - y10_25 - y12_44 - y39_61 - y20_57 - y31_57 - y2_30 - y4_49 - y31_66 - y23_62 - y24_27 - y32_40 - y13_36 - y24_36 - y43_58 - y1_52 - y16_50 - y1_61 - y24_63 - y35_63 - y16_59 - y36_37 - y17_33 - y5_40 - y28_42 - y42_44 - y50_66 - y30_60 - y11_56 - y11_65 - y12_39 - y31_52 - y20_61 - y4_44 - y23_57 - y23_66 - y13_31 - y24_31 - y4_62 - y16_27 - y53_67 - y24_40 - y64_67 - y43_53 - y24_49 - y16_45 - y5_8 - y35_58 - y17_19 - y1_65 - y38_51 - y17_37 - y15_67 - y19_46 - y0_51 - y8_64 - y12_25 - y31_38 - y23_34 - y2_11 - y4_30 - y31_47 - y20_56 - y23_61 - y53_62 - y16_22 - y34_58 - y13_35 - y34_67 - y56_67 - y35_44 - y37_63 - y5_21 - y57_59 - y9_28 - y38_64 - y27_54 - y8_50 - y27_63 - y11_46 - y8_59 - y20_33 - y39_46 - y31_42 - y23_38 - y12_56 - y13_21 - y4_52 - y16_17 - y45_53 - y24_30 - y16_26 - y34_62 - y1_37 - y56_62 - y14_65 - y5_7 - y5_16 - y26_48 - y5_25 - y7_44 - y46_63 - y15_57 - y49_59 - y57_63 - y15_66 - y7_62 - y50_51 - y42_47 - y27_58 - y0_41 - y11_41 - y19_54 - y12_24 - y20_37 - y31_37 - y44_65 - y23_42 - y34_48 - y45_48 - y1_23 - y53_61 - y3_51 - y37_53 - y45_66 - y37_62 - y46_49 - y15_43 - y38_45 - y57_58 - y15_52 - y26_52 - y38_54 - y49_54 - y15_61 - y7_57 - y8_22 - y18_57 - y27_35 - y7_66 - y48_67 - y27_44 - y0_27 - y8_40 - y19_40 - y4_6 - y4_15 - y12_28 - y33_60 - y12_37 - y23_37 - y1_9 - y25_65 - y53_56 - y37_39 - y22_50 - y34_52 - y3_46 - y37_48 - y22_59 - y45_61 - y14_55 - y3_64 - y15_29 - y5_6 - y38_40 - y18_34 - y26_47 - y27_30 - y0_13 - y18_61 - y8_26 - y30_35 - y40_67 - y8_44 - y12_14 - y41_50 - y60_63 - y33_46 - y12_23 - y4_19 - y44_55 - y10_62 - y34_38 - y1_13 - y3_32 - y22_45 - y45_47 - y14_41 - y37_61 - y18_20 - y15_33 - y26_42 - y18_38 - y0_8 - y18_56 - y48_57 - y0_17 - y8_30 - y0_26 - y6_60 - y11_26 - y0_35 - y21_67 - y41_45 - y52_54 - y25_37 - y60_67 - y41_63 - y25_46 - y10_57 - y33_59 - y25_55 - y22_31 - y2_62 - y3_27 - y37_38 - y3_45 - y14_45 - y26_28 - y55_64 - y18_24 - y26_46 - y17_65 - y28_65 - y18_42 - y29_39 - y0_12 - y21_44 - y6_55 - y29_57 - y21_62 - y10_61 - y51_62 - y14_22 - y22_35 - y2_66 - y14_31 - y43_67 - y14_40 - y37_42 - y22_53 - y36_46 - y15_23 - y55_59 - y18_19 - y47_55 - y15_32 - y17_51 - y29_34 - y8_11 - y6_41 - y40_43 - y48_56 - y62_67 - y2_25 - y25_36 - y10_47 - y33_49 - y3_17 - y14_17 - y22_30 - y22_39 - y24_67 - y14_44 - y7_14 - y36_50 - y17_46 - y7_23 - y5_53 - y5_62 - y29_47 - y40_47 - y10_24 - y54_58 - y10_33 - y33_35 - y10_42 - y51_52 - y3_12 - y22_25 - y51_61 - y3_21 - y14_21 - y43_57 - y35_53 - y43_66 - y13_62 - y35_62 - y16_58 - y16_67 - y28_32 - y36_45 - y55_58 - y17_41 - y28_41 - y9_37 - y55_67 - y5_48 - y17_59 - y9_55 - y5_66 - y9_64 - y21_29 - y61_65 - y6_49 - y6_58 - y32_34 - y3_7 - y24_39 - y43_52 - y24_48 - y3_25 - y14_25 - y1_64 - y24_66 - y17_27 - y28_36 - y9_32 - y28_45 - y9_50 - y58_64 - y50_60 - y29_37 - y20_46 - y2_19 - y20_55 - y31_55 - y54_57 - y20_64 - y13_25 - y4_56 - y24_43 - y35_43 - y43_56 - y16_48 - y24_61 - y5_20 - y9_36 - y5_47 - y27_62 - y50_64 - y30_67 - y0_63 - y10_18 - y39_54 - y20_50 - y39_63 - y23_46 - y62_65 - y4_42 - y32_33 - y12_64 - y13_29 - y16_25 - y13_38 - y43_51 - y1_45 - y13_47 - y1_54 - y24_56 - y35_56 - y46_53 - y57_62 - y36_39 - y28_35 - y5_51 - y27_48 - y50_59 - y0_49 - y30_62 - y20_27 - y39_40 - y31_36 - y10_13 - y11_67 - y39_58 - y20_63 - y24_33 - y4_64 - y32_46 - y24_51 - y16_47 - y46_48 - y1_58 - y17_21 - y38_53 - y28_30 - y46_66 - y57_66 - y26_60 - y30_48 - y27_61 - y8_57 - y20_22 - y42_59 - y11_53 - y19_66 - y11_62 - y23_27 - y39_53 - y12_36 - y31_49 - y23_54 - y1_17 - y13_19 - y4_50 - y53_55 - y45_60 - y56_60 - y1_35 - y24_37 - y35_37 - y22_67 - y38_39 - y15_46 - y57_61 - y9_21 - y26_55 - y26_64 - y27_29 - y38_66 - y18_60 - y27_47 - y8_43 - y27_56 - y30_52 - y27_65 - y12_13 - y19_61 - y0_57 - y11_57 - y12_22 - y4_18 - y12_31 - y20_44 - y4_27 - y12_40 - y1_3 - y23_40 - y4_36 - y1_12 - y34_46 - y53_59 - y34_55 - y1_30 - y34_64 - y3_67 - y14_67 - y26_41 - y38_43 - y46_56 - y38_61 - y49_61 - y27_42 - y0_25 - y11_25 - y8_38 - y19_38 - y30_38 - y19_47 - y30_47 - y42_49 - y8_56 - y12_17 - y0_61 - y11_61 - y33_58 - y10_65 - y33_67 - y4_40 - y22_57 - y56_59 - y14_62 - y26_36 - y18_32 - y15_45 - y18_41 - y8_15 - y26_63 - y27_28 - y7_59 - y27_37 - y0_20 - y8_33 - y19_33 - y11_29 - y40_65 - y11_38 - y19_51 - y30_51 - y0_47 - y11_47 - y12_21 - y4_17 - y33_53 - y41_66 - y10_60 - y25_58 - y2_65 - y1_20 - y22_52 - y45_54 - y3_48 - y14_48 - y3_57 - y15_22 - y7_18 - y14_66 - y15_40 - y26_40 - y15_49 - y26_49 - y0_6 - y18_54 - y0_15 - y11_15 - y8_28 - y48_64 - y8_37 - y30_37 - y21_65 - y33_39 - y52_61 - y44_57 - y25_53 - y1_6 - y34_40 - y34_49 - y37_45 - y22_56 - y3_61 - y15_44 - y7_40 - y0_1 - y18_49 - y29_46 - y19_23 - y6_53 - y29_55 - y40_55 - y0_28 - y33_34 - y52_56 - y44_52 - y52_65 - y2_46 - y10_59 - y2_55 - y3_20 - y14_20 - y22_33 - y2_64 - y3_29 - y66_67 - y34_44
 Subject to
C1: x0+x1-y0_1 <=1 
C2: x0+x2 <=1 
C3: x0+x5 <=1 
C4: x0+x6-y0_6 <=1 
C5: x0+x7 <=1 
C6: x0+x8-y0_8 <=1 
C7: x0+x12-y0_12 <=1 
C8: x0+x13-y0_13 <=1 
C9: x0+x15-y0_15 <=1 
C10: x0+x17-y0_17 <=1 
C11: x0+x19 <=1 
C12: x0+x20-y0_20 <=1 
C13: x0+x21 <=1 
C14: x0+x24 <=1 
C15: x0+x25-y0_25 <=1 
C16: x0+x26-y0_26 <=1 
C17: x0+x27-y0_27 <=1 
C18: x0+x28-y0_28 <=1 
C19: x0+x35-y0_35 <=1 
C20: x0+x36 <=1 
C21: x0+x37 <=1 
C22: x0+x38 <=1 
C23: x0+x39 <=1 
C24: x0+x41-y0_41 <=1 
C25: x0+x42 <=1 
C26: x0+x45 <=1 
C27: x0+x46 <=1 
C28: x0+x47-y0_47 <=1 
C29: x0+x49-y0_49 <=1 
C30: x0+x50 <=1 
C31: x0+x51-y0_51 <=1 
C32: x0+x52 <=1 
C33: x0+x57-y0_57 <=1 
C34: x0+x58 <=1 
C35: x0+x59 <=1 
C36: x0+x61-y0_61 <=1 
C37: x0+x62 <=1 
C38: x0+x63-y0_63 <=1 
C39: x0+x66 <=1 
C40: x0+x67 <=1 
C41: x1+x2 <=1 
C42: x1+x3-y1_3 <=1 
C43: x1+x5 <=1 
C44: x1+x6-y1_6 <=1 
C45: x1+x7 <=1 
C46: x1+x9-y1_9 <=1 
C47: x1+x11 <=1 
C48: x1+x12-y1_12 <=1 
C49: x1+x13-y1_13 <=1 
C50: x1+x15 <=1 
C51: x1+x16 <=1 
C52: x1+x17-y1_17 <=1 
C53: x1+x19 <=1 
C54: x1+x20-y1_20 <=1 
C55: x1+x23-y1_23 <=1 
C56: x1+x26 <=1 
C57: x1+x27 <=1 
C58: x1+x30-y1_30 <=1 
C59: x1+x31 <=1 
C60: x1+x33 <=1 
C61: x1+x35-y1_35 <=1 
C62: x1+x37-y1_37 <=1 
C63: x1+x38 <=1 
C64: x1+x41 <=1 
C65: x1+x44 <=1 
C66: x1+x45-y1_45 <=1 
C67: x1+x48 <=1 
C68: x1+x49 <=1 
C69: x1+x52-y1_52 <=1 
C70: x1+x53 <=1 
C71: x1+x54-y1_54 <=1 
C72: x1+x55 <=1 
C73: x1+x56 <=1 
C74: x1+x57 <=1 
C75: x1+x58-y1_58 <=1 
C76: x1+x60 <=1 
C77: x1+x61-y1_61 <=1 
C78: x1+x62-y1_62 <=1 
C79: x1+x64-y1_64 <=1 
C80: x1+x65-y1_65 <=1 
C81: x2+x3-y2_3 <=1 
C82: x2+x5 <=1 
C83: x2+x6 <=1 
C84: x2+x10 <=1 
C85: x2+x11-y2_11 <=1 
C86: x2+x12 <=1 
C87: x2+x14 <=1 
C88: x2+x15 <=1 
C89: x2+x19-y2_19 <=1 
C90: x2+x20 <=1 
C91: x2+x22-y2_22 <=1 
C92: x2+x23 <=1 
C93: x2+x24 <=1 
C94: x2+x25-y2_25 <=1 
C95: x2+x26 <=1 
C96: x2+x27-y2_27 <=1 
C97: x2+x29 <=1 
C98: x2+x30-y2_30 <=1 
C99: x2+x31 <=1 
C100: x2+x35 <=1 
C101: x2+x37 <=1 
C102: x2+x40-y2_40 <=1 
C103: x2+x42 <=1 
C104: x2+x43 <=1 
C105: x2+x46-y2_46 <=1 
C106: x2+x47 <=1 
C107: x2+x48 <=1 
C108: x2+x51 <=1 
C109: x2+x54-y2_54 <=1 
C110: x2+x55-y2_55 <=1 
C111: x2+x56 <=1 
C112: x2+x60 <=1 
C113: x2+x61 <=1 
C114: x2+x62-y2_62 <=1 
C115: x2+x64-y2_64 <=1 
C116: x2+x65-y2_65 <=1 
C117: x2+x66-y2_66 <=1 
C118: x2+x67 <=1 
C119: x3+x4 <=1 
C120: x3+x5 <=1 
C121: x3+x7-y3_7 <=1 
C122: x3+x9-y3_9 <=1 
C123: x3+x10 <=1 
C124: x3+x11 <=1 
C125: x3+x12-y3_12 <=1 
C126: x3+x13 <=1 
C127: x3+x14-y3_14 <=1 
C128: x3+x15-y3_15 <=1 
C129: x3+x16 <=1 
C130: x3+x17-y3_17 <=1 
C131: x3+x18 <=1 
C132: x3+x19-y3_19 <=1 
C133: x3+x20-y3_20 <=1 
C134: x3+x21-y3_21 <=1 
C135: x3+x22 <=1 
C136: x3+x23 <=1 
C137: x3+x25-y3_25 <=1 
C138: x3+x26 <=1 
C139: x3+x27-y3_27 <=1 
C140: x3+x28-y3_28 <=1 
C141: x3+x29-y3_29 <=1 
C142: x3+x30 <=1 
C143: x3+x31 <=1 
C144: x3+x32-y3_32 <=1 
C145: x3+x36 <=1 
C146: x3+x37-y3_37 <=1 
C147: x3+x40 <=1 
C148: x3+x41 <=1 
C149: x3+x42 <=1 
C150: x3+x43 <=1 
C151: x3+x45-y3_45 <=1 
C152: x3+x46-y3_46 <=1 
C153: x3+x47 <=1 
C154: x3+x48-y3_48 <=1 
C155: x3+x49 <=1 
C156: x3+x50 <=1 
C157: x3+x51-y3_51 <=1 
C158: x3+x52 <=1 
C159: x3+x53 <=1 
C160: x3+x57-y3_57 <=1 
C161: x3+x59 <=1 
C162: x3+x61-y3_61 <=1 
C163: x3+x64-y3_64 <=1 
C164: x3+x67-y3_67 <=1 
C165: x4+x5 <=1 
C166: x4+x6-y4_6 <=1 
C167: x4+x9 <=1 
C168: x4+x14 <=1 
C169: x4+x15-y4_15 <=1 
C170: x4+x17-y4_17 <=1 
C171: x4+x18-y4_18 <=1 
C172: x4+x19-y4_19 <=1 
C173: x4+x20 <=1 
C174: x4+x22 <=1 
C175: x4+x27-y4_27 <=1 
C176: x4+x30-y4_30 <=1 
C177: x4+x32 <=1 
C178: x4+x36-y4_36 <=1 
C179: x4+x37 <=1 
C180: x4+x38 <=1 
C181: x4+x40-y4_40 <=1 
C182: x4+x42-y4_42 <=1 
C183: x4+x43 <=1 
C184: x4+x44-y4_44 <=1 
C185: x4+x45 <=1 
C186: x4+x47 <=1 
C187: x4+x48 <=1 
C188: x4+x49-y4_49 <=1 
C189: x4+x50-y4_50 <=1 
C190: x4+x52-y4_52 <=1 
C191: x4+x56-y4_56 <=1 
C192: x4+x58 <=1 
C193: x4+x62-y4_62 <=1 
C194: x4+x63-y4_63 <=1 
C195: x4+x64-y4_64 <=1 
C196: x4+x65 <=1 
C197: x4+x67 <=1 
C198: x5+x6-y5_6 <=1 
C199: x5+x7-y5_7 <=1 
C200: x5+x8-y5_8 <=1 
C201: x5+x10 <=1 
C202: x5+x13 <=1 
C203: x5+x14 <=1 
C204: x5+x16-y5_16 <=1 
C205: x5+x17 <=1 
C206: x5+x18 <=1 
C207: x5+x20-y5_20 <=1 
C208: x5+x21-y5_21 <=1 
C209: x5+x23 <=1 
C210: x5+x25-y5_25 <=1 
C211: x5+x26 <=1 
C212: x5+x27 <=1 
C213: x5+x28 <=1 
C214: x5+x32 <=1 
C215: x5+x35 <=1 
C216: x5+x36 <=1 
C217: x5+x37 <=1 
C218: x5+x40-y5_40 <=1 
C219: x5+x41 <=1 
C220: x5+x42 <=1 
C221: x5+x43 <=1 
C222: x5+x44 <=1 
C223: x5+x45 <=1 
C224: x5+x47-y5_47 <=1 
C225: x5+x48-y5_48 <=1 
C226: x5+x49 <=1 
C227: x5+x50-y5_50 <=1 
C228: x5+x51-y5_51 <=1 
C229: x5+x53-y5_53 <=1 
C230: x5+x54 <=1 
C231: x5+x55 <=1 
C232: x5+x56 <=1 
C233: x5+x58 <=1 
C234: x5+x62-y5_62 <=1 
C235: x5+x63-y5_63 <=1 
C236: x5+x64 <=1 
C237: x5+x66-y5_66 <=1 
C238: x6+x9 <=1 
C239: x6+x15 <=1 
C240: x6+x16 <=1 
C241: x6+x17 <=1 
C242: x6+x19 <=1 
C243: x6+x20 <=1 
C244: x6+x21 <=1 
C245: x6+x22 <=1 
C246: x6+x25 <=1 
C247: x6+x27 <=1 
C248: x6+x28-y6_28 <=1 
C249: x6+x29-y6_29 <=1 
C250: x6+x30 <=1 
C251: x6+x31 <=1 
C252: x6+x34 <=1 
C253: x6+x36 <=1 
C254: x6+x37-y6_37 <=1 
C255: x6+x39 <=1 
C256: x6+x41-y6_41 <=1 
C257: x6+x44 <=1 
C258: x6+x46-y6_46 <=1 
C259: x6+x47 <=1 
C260: x6+x49-y6_49 <=1 
C261: x6+x50 <=1 
C262: x6+x52-y6_52 <=1 
C263: x6+x53-y6_53 <=1 
C264: x6+x55-y6_55 <=1 
C265: x6+x56 <=1 
C266: x6+x57-y6_57 <=1 
C267: x6+x58-y6_58 <=1 
C268: x6+x59 <=1 
C269: x6+x60-y6_60 <=1 
C270: x6+x61 <=1 
C271: x6+x62 <=1 
C272: x6+x65-y6_65 <=1 
C273: x6+x66 <=1 
C274: x6+x67 <=1 
C275: x7+x8 <=1 
C276: x7+x10 <=1 
C277: x7+x11-y7_11 <=1 
C278: x7+x12 <=1 
C279: x7+x13 <=1 
C280: x7+x14-y7_14 <=1 
C281: x7+x16-y7_16 <=1 
C282: x7+x17-y7_17 <=1 
C283: x7+x18-y7_18 <=1 
C284: x7+x19 <=1 
C285: x7+x20 <=1 
C286: x7+x23-y7_23 <=1 
C287: x7+x24 <=1 
C288: x7+x26 <=1 
C289: x7+x34 <=1 
C290: x7+x36 <=1 
C291: x7+x38 <=1 
C292: x7+x40-y7_40 <=1 
C293: x7+x42 <=1 
C294: x7+x44-y7_44 <=1 
C295: x7+x46 <=1 
C296: x7+x47 <=1 
C297: x7+x48 <=1 
C298: x7+x51 <=1 
C299: x7+x53 <=1 
C300: x7+x54 <=1 
C301: x7+x57-y7_57 <=1 
C302: x7+x59-y7_59 <=1 
C303: x7+x62-y7_62 <=1 
C304: x7+x63 <=1 
C305: x7+x66-y7_66 <=1 
C306: x7+x67 <=1 
C307: x8+x11-y8_11 <=1 
C308: x8+x12 <=1 
C309: x8+x15-y8_15 <=1 
C310: x8+x20 <=1 
C311: x8+x21 <=1 
C312: x8+x22-y8_22 <=1 
C313: x8+x23 <=1 
C314: x8+x26-y8_26 <=1 
C315: x8+x27 <=1 
C316: x8+x28-y8_28 <=1 
C317: x8+x30-y8_30 <=1 
C318: x8+x31 <=1 
C319: x8+x32 <=1 
C320: x8+x33-y8_33 <=1 
C321: x8+x35 <=1 
C322: x8+x37-y8_37 <=1 
C323: x8+x38-y8_38 <=1 
C324: x8+x40-y8_40 <=1 
C325: x8+x41 <=1 
C326: x8+x43-y8_43 <=1 
C327: x8+x44-y8_44 <=1 
C328: x8+x45 <=1 
C329: x8+x46 <=1 
C330: x8+x47 <=1 
C331: x8+x48 <=1 
C332: x8+x49 <=1 
C333: x8+x50-y8_50 <=1 
C334: x8+x51 <=1 
C335: x8+x52 <=1 
C336: x8+x54 <=1 
C337: x8+x55 <=1 
C338: x8+x56-y8_56 <=1 
C339: x8+x57-y8_57 <=1 
C340: x8+x59-y8_59 <=1 
C341: x8+x60 <=1 
C342: x8+x61 <=1 
C343: x8+x62 <=1 
C344: x8+x64-y8_64 <=1 
C345: x8+x65 <=1 
C346: x8+x66 <=1 
C347: x9+x12 <=1 
C348: x9+x14 <=1 
C349: x9+x18 <=1 
C350: x9+x21-y9_21 <=1 
C351: x9+x23 <=1 
C352: x9+x25 <=1 
C353: x9+x27 <=1 
C354: x9+x28-y9_28 <=1 
C355: x9+x30 <=1 
C356: x9+x32-y9_32 <=1 
C357: x9+x34 <=1 
C358: x9+x36-y9_36 <=1 
C359: x9+x37-y9_37 <=1 
C360: x9+x41 <=1 
C361: x9+x43 <=1 
C362: x9+x45 <=1 
C363: x9+x46 <=1 
C364: x9+x49 <=1 
C365: x9+x50-y9_50 <=1 
C366: x9+x52-y9_52 <=1 
C367: x9+x53-y9_53 <=1 
C368: x9+x54 <=1 
C369: x9+x55-y9_55 <=1 
C370: x9+x57 <=1 
C371: x9+x58-y9_58 <=1 
C372: x9+x61-y9_61 <=1 
C373: x9+x64-y9_64 <=1 
C374: x9+x66-y9_66 <=1 
C375: x9+x67 <=1 
C376: x10+x11 <=1 
C377: x10+x13-y10_13 <=1 
C378: x10+x14 <=1 
C379: x10+x15 <=1 
C380: x10+x16-y10_16 <=1 
C381: x10+x17 <=1 
C382: x10+x18-y10_18 <=1 
C383: x10+x19 <=1 
C384: x10+x23 <=1 
C385: x10+x24-y10_24 <=1 
C386: x10+x25-y10_25 <=1 
C387: x10+x27-y10_27 <=1 
C388: x10+x28 <=1 
C389: x10+x33-y10_33 <=1 
C390: x10+x35 <=1 
C391: x10+x36 <=1 
C392: x10+x37 <=1 
C393: x10+x42-y10_42 <=1 
C394: x10+x43 <=1 
C395: x10+x44 <=1 
C396: x10+x47-y10_47 <=1 
C397: x10+x49-y10_49 <=1 
C398: x10+x51 <=1 
C399: x10+x54 <=1 
C400: x10+x57-y10_57 <=1 
C401: x10+x59-y10_59 <=1 
C402: x10+x60-y10_60 <=1 
C403: x10+x61-y10_61 <=1 
C404: x10+x62-y10_62 <=1 
C405: x10+x64 <=1 
C406: x10+x65-y10_65 <=1 
C407: x10+x67 <=1 
C408: x11+x14 <=1 
C409: x11+x15-y11_15 <=1 
C410: x11+x17 <=1 
C411: x11+x18 <=1 
C412: x11+x20 <=1 
C413: x11+x25-y11_25 <=1 
C414: x11+x26-y11_26 <=1 
C415: x11+x29-y11_29 <=1 
C416: x11+x31 <=1 
C417: x11+x32 <=1 
C418: x11+x33 <=1 
C419: x11+x35 <=1 
C420: x11+x38-y11_38 <=1 
C421: x11+x41-y11_41 <=1 
C422: x11+x43 <=1 
C423: x11+x44 <=1 
C424: x11+x45 <=1 
C425: x11+x46-y11_46 <=1 
C426: x11+x47-y11_47 <=1 
C427: x11+x49 <=1 
C428: x11+x51 <=1 
C429: x11+x52 <=1 
C430: x11+x53-y11_53 <=1 
C431: x11+x54 <=1 
C432: x11+x56-y11_56 <=1 
C433: x11+x57-y11_57 <=1 
C434: x11+x58 <=1 
C435: x11+x60 <=1 
C436: x11+x61-y11_61 <=1 
C437: x11+x62-y11_62 <=1 
C438: x11+x64 <=1 
C439: x11+x65-y11_65 <=1 
C440: x11+x67-y11_67 <=1 
C441: x12+x13-y12_13 <=1 
C442: x12+x14-y12_14 <=1 
C443: x12+x17-y12_17 <=1 
C444: x12+x21-y12_21 <=1 
C445: x12+x22-y12_22 <=1 
C446: x12+x23-y12_23 <=1 
C447: x12+x24-y12_24 <=1 
C448: x12+x25-y12_25 <=1 
C449: x12+x28-y12_28 <=1 
C450: x12+x29 <=1 
C451: x12+x31-y12_31 <=1 
C452: x12+x33 <=1 
C453: x12+x36-y12_36 <=1 
C454: x12+x37-y12_37 <=1 
C455: x12+x38 <=1 
C456: x12+x39-y12_39 <=1 
C457: x12+x40-y12_40 <=1 
C458: x12+x43 <=1 
C459: x12+x44-y12_44 <=1 
C460: x12+x47 <=1 
C461: x12+x50 <=1 
C462: x12+x51 <=1 
C463: x12+x55 <=1 
C464: x12+x56-y12_56 <=1 
C465: x12+x57 <=1 
C466: x12+x58-y12_58 <=1 
C467: x12+x60 <=1 
C468: x12+x62 <=1 
C469: x12+x63 <=1 
C470: x12+x64-y12_64 <=1 
C471: x12+x66 <=1 
C472: x12+x67 <=1 
C473: x13+x14 <=1 
C474: x13+x17 <=1 
C475: x13+x19-y13_19 <=1 
C476: x13+x21-y13_21 <=1 
C477: x13+x25-y13_25 <=1 
C478: x13+x27 <=1 
C479: x13+x28 <=1 
C480: x13+x29-y13_29 <=1 
C481: x13+x31-y13_31 <=1 
C482: x13+x33 <=1 
C483: x13+x35-y13_35 <=1 
C484: x13+x36-y13_36 <=1 
C485: x13+x38-y13_38 <=1 
C486: x13+x41 <=1 
C487: x13+x42 <=1 
C488: x13+x45 <=1 
C489: x13+x46 <=1 
C490: x13+x47-y13_47 <=1 
C491: x13+x48 <=1 
C492: x13+x49 <=1 
C493: x13+x50 <=1 
C494: x13+x52 <=1 
C495: x13+x53 <=1 
C496: x13+x54 <=1 
C497: x13+x58 <=1 
C498: x13+x60 <=1 
C499: x13+x61 <=1 
C500: x13+x62-y13_62 <=1 
C501: x13+x64 <=1 
C502: x13+x65-y13_65 <=1 
C503: x13+x66 <=1 
C504: x13+x67 <=1 
C505: x14+x15-y14_15 <=1 
C506: x14+x16 <=1 
C507: x14+x17-y14_17 <=1 
C508: x14+x18 <=1 
C509: x14+x20-y14_20 <=1 
C510: x14+x21-y14_21 <=1 
C511: x14+x22-y14_22 <=1 
C512: x14+x23 <=1 
C513: x14+x25-y14_25 <=1 
C514: x14+x26 <=1 
C515: x14+x27 <=1 
C516: x14+x28 <=1 
C517: x14+x29 <=1 
C518: x14+x31-y14_31 <=1 
C519: x14+x32-y14_32 <=1 
C520: x14+x34 <=1 
C521: x14+x35 <=1 
C522: x14+x39 <=1 
C523: x14+x40-y14_40 <=1 
C524: x14+x41-y14_41 <=1 
C525: x14+x43 <=1 
C526: x14+x44-y14_44 <=1 
C527: x14+x45-y14_45 <=1 
C528: x14+x48-y14_48 <=1 
C529: x14+x51 <=1 
C530: x14+x54 <=1 
C531: x14+x55-y14_55 <=1 
C532: x14+x61 <=1 
C533: x14+x62-y14_62 <=1 
C534: x14+x63 <=1 
C535: x14+x65-y14_65 <=1 
C536: x14+x66-y14_66 <=1 
C537: x14+x67-y14_67 <=1 
C538: x15+x21 <=1 
C539: x15+x22-y15_22 <=1 
C540: x15+x23-y15_23 <=1 
C541: x15+x25 <=1 
C542: x15+x27 <=1 
C543: x15+x29-y15_29 <=1 
C544: x15+x30-y15_30 <=1 
C545: x15+x32-y15_32 <=1 
C546: x15+x33-y15_33 <=1 
C547: x15+x38 <=1 
C548: x15+x39-y15_39 <=1 
C549: x15+x40-y15_40 <=1 
C550: x15+x41 <=1 
C551: x15+x42 <=1 
C552: x15+x43-y15_43 <=1 
C553: x15+x44-y15_44 <=1 
C554: x15+x45-y15_45 <=1 
C555: x15+x46-y15_46 <=1 
C556: x15+x47 <=1 
C557: x15+x49-y15_49 <=1 
C558: x15+x50 <=1 
C559: x15+x51 <=1 
C560: x15+x52-y15_52 <=1 
C561: x15+x55 <=1 
C562: x15+x57-y15_57 <=1 
C563: x15+x59 <=1 
C564: x15+x61-y15_61 <=1 
C565: x15+x63 <=1 
C566: x15+x64 <=1 
C567: x15+x65 <=1 
C568: x15+x66-y15_66 <=1 
C569: x15+x67-y15_67 <=1 
C570: x16+x17-y16_17 <=1 
C571: x16+x19 <=1 
C572: x16+x22-y16_22 <=1 
C573: x16+x23 <=1 
C574: x16+x25-y16_25 <=1 
C575: x16+x26-y16_26 <=1 
C576: x16+x27-y16_27 <=1 
C577: x16+x31 <=1 
C578: x16+x32 <=1 
C579: x16+x34 <=1 
C580: x16+x35 <=1 
C581: x16+x36 <=1 
C582: x16+x38 <=1 
C583: x16+x39 <=1 
C584: x16+x41 <=1 
C585: x16+x42 <=1 
C586: x16+x43 <=1 
C587: x16+x45-y16_45 <=1 
C588: x16+x46-y16_46 <=1 
C589: x16+x47-y16_47 <=1 
C590: x16+x48-y16_48 <=1 
C591: x16+x50-y16_50 <=1 
C592: x16+x52 <=1 
C593: x16+x53 <=1 
C594: x16+x54 <=1 
C595: x16+x56-y16_56 <=1 
C596: x16+x57 <=1 
C597: x16+x58-y16_58 <=1 
C598: x16+x59-y16_59 <=1 
C599: x16+x60 <=1 
C600: x16+x61 <=1 
C601: x16+x62 <=1 
C602: x16+x63 <=1 
C603: x16+x64-y16_64 <=1 
C604: x16+x67-y16_67 <=1 
C605: x17+x18 <=1 
C606: x17+x19-y17_19 <=1 
C607: x17+x20 <=1 
C608: x17+x21-y17_21 <=1 
C609: x17+x25 <=1 
C610: x17+x26 <=1 
C611: x17+x27-y17_27 <=1 
C612: x17+x28 <=1 
C613: x17+x33-y17_33 <=1 
C614: x17+x34-y17_34 <=1 
C615: x17+x36 <=1 
C616: x17+x37-y17_37 <=1 
C617: x17+x39 <=1 
C618: x17+x41-y17_41 <=1 
C619: x17+x45 <=1 
C620: x17+x46-y17_46 <=1 
C621: x17+x48 <=1 
C622: x17+x50 <=1 
C623: x17+x51-y17_51 <=1 
C624: x17+x52-y17_52 <=1 
C625: x17+x53-y17_53 <=1 
C626: x17+x54 <=1 
C627: x17+x55 <=1 
C628: x17+x56 <=1 
C629: x17+x57-y17_57 <=1 
C630: x17+x59-y17_59 <=1 
C631: x17+x61-y17_61 <=1 
C632: x17+x62-y17_62 <=1 
C633: x17+x63 <=1 
C634: x17+x65-y17_65 <=1 
C635: x17+x66 <=1 
C636: x17+x67-y17_67 <=1 
C637: x18+x19-y18_19 <=1 
C638: x18+x20-y18_20 <=1 
C639: x18+x22 <=1 
C640: x18+x23 <=1 
C641: x18+x24-y18_24 <=1 
C642: x18+x28 <=1 
C643: x18+x30-y18_30 <=1 
C644: x18+x31 <=1 
C645: x18+x32-y18_32 <=1 
C646: x18+x33 <=1 
C647: x18+x34-y18_34 <=1 
C648: x18+x37 <=1 
C649: x18+x38-y18_38 <=1 
C650: x18+x39 <=1 
C651: x18+x40 <=1 
C652: x18+x41-y18_41 <=1 
C653: x18+x42-y18_42 <=1 
C654: x18+x46 <=1 
C655: x18+x49-y18_49 <=1 
C656: x18+x50 <=1 
C657: x18+x51 <=1 
C658: x18+x54-y18_54 <=1 
C659: x18+x56-y18_56 <=1 
C660: x18+x57-y18_57 <=1 
C661: x18+x58 <=1 
C662: x18+x59 <=1 
C663: x18+x60-y18_60 <=1 
C664: x18+x61-y18_61 <=1 
C665: x18+x65 <=1 
C666: x18+x66 <=1 
C667: x19+x20 <=1 
C668: x19+x21 <=1 
C669: x19+x23-y19_23 <=1 
C670: x19+x30 <=1 
C671: x19+x32 <=1 
C672: x19+x33-y19_33 <=1 
C673: x19+x38-y19_38 <=1 
C674: x19+x40-y19_40 <=1 
C675: x19+x46-y19_46 <=1 
C676: x19+x47-y19_47 <=1 
C677: x19+x48 <=1 
C678: x19+x49 <=1 
C679: x19+x51-y19_51 <=1 
C680: x19+x54-y19_54 <=1 
C681: x19+x55 <=1 
C682: x19+x59 <=1 
C683: x19+x60 <=1 
C684: x19+x61-y19_61 <=1 
C685: x19+x62 <=1 
C686: x19+x65 <=1 
C687: x19+x66-y19_66 <=1 
C688: x19+x67 <=1 
C689: x20+x22-y20_22 <=1 
C690: x20+x23 <=1 
C691: x20+x27-y20_27 <=1 
C692: x20+x29 <=1 
C693: x20+x31 <=1 
C694: x20+x33-y20_33 <=1 
C695: x20+x34 <=1 
C696: x20+x36 <=1 
C697: x20+x37-y20_37 <=1 
C698: x20+x42 <=1 
C699: x20+x44-y20_44 <=1 
C700: x20+x46-y20_46 <=1 
C701: x20+x49 <=1 
C702: x20+x50-y20_50 <=1 
C703: x20+x52 <=1 
C704: x20+x54 <=1 
C705: x20+x55-y20_55 <=1 
C706: x20+x56-y20_56 <=1 
C707: x20+x57-y20_57 <=1 
C708: x20+x58 <=1 
C709: x20+x59 <=1 
C710: x20+x60 <=1 
C711: x20+x61-y20_61 <=1 
C712: x20+x62 <=1 
C713: x20+x63-y20_63 <=1 
C714: x20+x64-y20_64 <=1 
C715: x20+x65 <=1 
C716: x21+x22 <=1 
C717: x21+x23 <=1 
C718: x21+x24 <=1 
C719: x21+x26 <=1 
C720: x21+x27 <=1 
C721: x21+x28 <=1 
C722: x21+x29-y21_29 <=1 
C723: x21+x33 <=1 
C724: x21+x35-y21_35 <=1 
C725: x21+x36-y21_36 <=1 
C726: x21+x37 <=1 
C727: x21+x38 <=1 
C728: x21+x41-y21_41 <=1 
C729: x21+x42 <=1 
C730: x21+x43 <=1 
C731: x21+x44-y21_44 <=1 
C732: x21+x46 <=1 
C733: x21+x49 <=1 
C734: x21+x55 <=1 
C735: x21+x57 <=1 
C736: x21+x59-y21_59 <=1 
C737: x21+x60 <=1 
C738: x21+x62-y21_62 <=1 
C739: x21+x64 <=1 
C740: x21+x65-y21_65 <=1 
C741: x21+x66 <=1 
C742: x21+x67-y21_67 <=1 
C743: x22+x25-y22_25 <=1 
C744: x22+x26 <=1 
C745: x22+x28 <=1 
C746: x22+x30-y22_30 <=1 
C747: x22+x31-y22_31 <=1 
C748: x22+x32 <=1 
C749: x22+x33-y22_33 <=1 
C750: x22+x35-y22_35 <=1 
C751: x22+x38 <=1 
C752: x22+x39-y22_39 <=1 
C753: x22+x41 <=1 
C754: x22+x42 <=1 
C755: x22+x45-y22_45 <=1 
C756: x22+x48 <=1 
C757: x22+x49 <=1 
C758: x22+x50-y22_50 <=1 
C759: x22+x52-y22_52 <=1 
C760: x22+x53-y22_53 <=1 
C761: x22+x54 <=1 
C762: x22+x55 <=1 
C763: x22+x56-y22_56 <=1 
C764: x22+x57-y22_57 <=1 
C765: x22+x58 <=1 
C766: x22+x59-y22_59 <=1 
C767: x22+x62 <=1 
C768: x22+x63 <=1 
C769: x22+x64 <=1 
C770: x22+x66 <=1 
C771: x22+x67-y22_67 <=1 
C772: x23+x24 <=1 
C773: x23+x27-y23_27 <=1 
C774: x23+x28 <=1 
C775: x23+x29 <=1 
C776: x23+x31 <=1 
C777: x23+x34-y23_34 <=1 
C778: x23+x37-y23_37 <=1 
C779: x23+x38-y23_38 <=1 
C780: x23+x40-y23_40 <=1 
C781: x23+x42-y23_42 <=1 
C782: x23+x45 <=1 
C783: x23+x46-y23_46 <=1 
C784: x23+x49 <=1 
C785: x23+x50 <=1 
C786: x23+x51 <=1 
C787: x23+x52 <=1 
C788: x23+x53 <=1 
C789: x23+x54-y23_54 <=1 
C790: x23+x56 <=1 
C791: x23+x57-y23_57 <=1 
C792: x23+x58-y23_58 <=1 
C793: x23+x59 <=1 
C794: x23+x61-y23_61 <=1 
C795: x23+x62-y23_62 <=1 
C796: x23+x63 <=1 
C797: x23+x64 <=1 
C798: x23+x65 <=1 
C799: x23+x66-y23_66 <=1 
C800: x24+x27-y24_27 <=1 
C801: x24+x28 <=1 
C802: x24+x30-y24_30 <=1 
C803: x24+x31-y24_31 <=1 
C804: x24+x33-y24_33 <=1 
C805: x24+x34 <=1 
C806: x24+x35 <=1 
C807: x24+x36-y24_36 <=1 
C808: x24+x37-y24_37 <=1 
C809: x24+x39-y24_39 <=1 
C810: x24+x40-y24_40 <=1 
C811: x24+x41-y24_41 <=1 
C812: x24+x43-y24_43 <=1 
C813: x24+x44 <=1 
C814: x24+x45 <=1 
C815: x24+x46 <=1 
C816: x24+x47 <=1 
C817: x24+x48-y24_48 <=1 
C818: x24+x49-y24_49 <=1 
C819: x24+x51-y24_51 <=1 
C820: x24+x52 <=1 
C821: x24+x55 <=1 
C822: x24+x56-y24_56 <=1 
C823: x24+x59 <=1 
C824: x24+x60-y24_60 <=1 
C825: x24+x61-y24_61 <=1 
C826: x24+x63-y24_63 <=1 
C827: x24+x64-y24_64 <=1 
C828: x24+x65 <=1 
C829: x24+x66-y24_66 <=1 
C830: x24+x67-y24_67 <=1 
C831: x25+x26 <=1 
C832: x25+x29 <=1 
C833: x25+x30 <=1 
C834: x25+x31 <=1 
C835: x25+x36-y25_36 <=1 
C836: x25+x37-y25_37 <=1 
C837: x25+x42-y25_42 <=1 
C838: x25+x43-y25_43 <=1 
C839: x25+x44 <=1 
C840: x25+x46-y25_46 <=1 
C841: x25+x47 <=1 
C842: x25+x48 <=1 
C843: x25+x49 <=1 
C844: x25+x50 <=1 
C845: x25+x52 <=1 
C846: x25+x53-y25_53 <=1 
C847: x25+x54 <=1 
C848: x25+x55-y25_55 <=1 
C849: x25+x56 <=1 
C850: x25+x57 <=1 
C851: x25+x58-y25_58 <=1 
C852: x25+x60 <=1 
C853: x25+x62 <=1 
C854: x25+x63 <=1 
C855: x25+x65-y25_65 <=1 
C856: x25+x66 <=1 
C857: x26+x28-y26_28 <=1 
C858: x26+x30 <=1 
C859: x26+x31 <=1 
C860: x26+x34 <=1 
C861: x26+x36-y26_36 <=1 
C862: x26+x37 <=1 
C863: x26+x38 <=1 
C864: x26+x40-y26_40 <=1 
C865: x26+x41-y26_41 <=1 
C866: x26+x42-y26_42 <=1 
C867: x26+x44 <=1 
C868: x26+x46-y26_46 <=1 
C869: x26+x47-y26_47 <=1 
C870: x26+x48-y26_48 <=1 
C871: x26+x49-y26_49 <=1 
C872: x26+x52-y26_52 <=1 
C873: x26+x53 <=1 
C874: x26+x54 <=1 
C875: x26+x55-y26_55 <=1 
C876: x26+x58 <=1 
C877: x26+x59 <=1 
C878: x26+x60-y26_60 <=1 
C879: x26+x62 <=1 
C880: x26+x63-y26_63 <=1 
C881: x26+x64-y26_64 <=1 
C882: x26+x66 <=1 
C883: x27+x28-y27_28 <=1 
C884: x27+x29-y27_29 <=1 
C885: x27+x30-y27_30 <=1 
C886: x27+x31 <=1 
C887: x27+x33 <=1 
C888: x27+x34 <=1 
C889: x27+x35-y27_35 <=1 
C890: x27+x37-y27_37 <=1 
C891: x27+x38 <=1 
C892: x27+x39 <=1 
C893: x27+x42-y27_42 <=1 
C894: x27+x43 <=1 
C895: x27+x44-y27_44 <=1 
C896: x27+x45 <=1 
C897: x27+x47-y27_47 <=1 
C898: x27+x48-y27_48 <=1 
C899: x27+x50 <=1 
C900: x27+x52 <=1 
C901: x27+x54-y27_54 <=1 
C902: x27+x56-y27_56 <=1 
C903: x27+x58-y27_58 <=1 
C904: x27+x60-y27_60 <=1 
C905: x27+x61-y27_61 <=1 
C906: x27+x62-y27_62 <=1 
C907: x27+x63-y27_63 <=1 
C908: x27+x65-y27_65 <=1 
C909: x28+x29-y28_29 <=1 
C910: x28+x30-y28_30 <=1 
C911: x28+x31 <=1 
C912: x28+x32-y28_32 <=1 
C913: x28+x33 <=1 
C914: x28+x35-y28_35 <=1 
C915: x28+x36-y28_36 <=1 
C916: x28+x38-y28_38 <=1 
C917: x28+x39 <=1 
C918: x28+x40 <=1 
C919: x28+x41-y28_41 <=1 
C920: x28+x42-y28_42 <=1 
C921: x28+x43 <=1 
C922: x28+x45-y28_45 <=1 
C923: x28+x48 <=1 
C924: x28+x50 <=1 
C925: x28+x54 <=1 
C926: x28+x55 <=1 
C927: x28+x56 <=1 
C928: x28+x57 <=1 
C929: x28+x58 <=1 
C930: x28+x59 <=1 
C931: x28+x60 <=1 
C932: x28+x61-y28_61 <=1 
C933: x28+x62-y28_62 <=1 
C934: x28+x65-y28_65 <=1 
C935: x28+x66 <=1 
C936: x28+x67-y28_67 <=1 
C937: x29+x30 <=1 
C938: x29+x31-y29_31 <=1 
C939: x29+x32-y29_32 <=1 
C940: x29+x33 <=1 
C941: x29+x34-y29_34 <=1 
C942: x29+x35-y29_35 <=1 
C943: x29+x37-y29_37 <=1 
C944: x29+x39-y29_39 <=1 
C945: x29+x41 <=1 
C946: x29+x42 <=1 
C947: x29+x45-y29_45 <=1 
C948: x29+x46-y29_46 <=1 
C949: x29+x47-y29_47 <=1 
C950: x29+x48 <=1 
C951: x29+x49-y29_49 <=1 
C952: x29+x50-y29_50 <=1 
C953: x29+x52 <=1 
C954: x29+x55-y29_55 <=1 
C955: x29+x57-y29_57 <=1 
C956: x29+x59-y29_59 <=1 
C957: x29+x63-y29_63 <=1 
C958: x30+x31 <=1 
C959: x30+x35-y30_35 <=1 
C960: x30+x37-y30_37 <=1 
C961: x30+x38-y30_38 <=1 
C962: x30+x39 <=1 
C963: x30+x44 <=1 
C964: x30+x47-y30_47 <=1 
C965: x30+x48-y30_48 <=1 
C966: x30+x50 <=1 
C967: x30+x51-y30_51 <=1 
C968: x30+x52-y30_52 <=1 
C969: x30+x54 <=1 
C970: x30+x55 <=1 
C971: x30+x60-y30_60 <=1 
C972: x30+x62-y30_62 <=1 
C973: x30+x64 <=1 
C974: x30+x65 <=1 
C975: x30+x66 <=1 
C976: x30+x67-y30_67 <=1 
C977: x31+x34 <=1 
C978: x31+x36-y31_36 <=1 
C979: x31+x37-y31_37 <=1 
C980: x31+x38-y31_38 <=1 
C981: x31+x41 <=1 
C982: x31+x42-y31_42 <=1 
C983: x31+x44 <=1 
C984: x31+x45 <=1 
C985: x31+x47-y31_47 <=1 
C986: x31+x49-y31_49 <=1 
C987: x31+x51 <=1 
C988: x31+x52-y31_52 <=1 
C989: x31+x53 <=1 
C990: x31+x55-y31_55 <=1 
C991: x31+x56 <=1 
C992: x31+x57-y31_57 <=1 
C993: x31+x60 <=1 
C994: x31+x64 <=1 
C995: x31+x65 <=1 
C996: x31+x66-y31_66 <=1 
C997: x32+x33-y32_33 <=1 
C998: x32+x34-y32_34 <=1 
C999: x32+x38 <=1 
C1000: x32+x39 <=1 
C1001: x32+x40-y32_40 <=1 
C1002: x32+x41 <=1 
C1003: x32+x43 <=1 
C1004: x32+x45 <=1 
C1005: x32+x46-y32_46 <=1 
C1006: x32+x48 <=1 
C1007: x32+x50-y32_50 <=1 
C1008: x32+x51 <=1 
C1009: x32+x52 <=1 
C1010: x32+x57 <=1 
C1011: x32+x59 <=1 
C1012: x32+x62 <=1 
C1013: x32+x64 <=1 
C1014: x32+x65 <=1 
C1015: x32+x66 <=1 
C1016: x33+x34-y33_34 <=1 
C1017: x33+x35-y33_35 <=1 
C1018: x33+x37 <=1 
C1019: x33+x38 <=1 
C1020: x33+x39-y33_39 <=1 
C1021: x33+x40 <=1 
C1022: x33+x43 <=1 
C1023: x33+x45 <=1 
C1024: x33+x46-y33_46 <=1 
C1025: x33+x48 <=1 
C1026: x33+x49-y33_49 <=1 
C1027: x33+x51 <=1 
C1028: x33+x52 <=1 
C1029: x33+x53-y33_53 <=1 
C1030: x33+x58-y33_58 <=1 
C1031: x33+x59-y33_59 <=1 
C1032: x33+x60-y33_60 <=1 
C1033: x33+x61 <=1 
C1034: x33+x63 <=1 
C1035: x33+x64 <=1 
C1036: x33+x67-y33_67 <=1 
C1037: x34+x36 <=1 
C1038: x34+x38-y34_38 <=1 
C1039: x34+x40-y34_40 <=1 
C1040: x34+x41 <=1 
C1041: x34+x42 <=1 
C1042: x34+x43 <=1 
C1043: x34+x44-y34_44 <=1 
C1044: x34+x45 <=1 
C1045: x34+x46-y34_46 <=1 
C1046: x34+x47 <=1 
C1047: x34+x48-y34_48 <=1 
C1048: x34+x49-y34_49 <=1 
C1049: x34+x50 <=1 
C1050: x34+x52-y34_52 <=1 
C1051: x34+x55-y34_55 <=1 
C1052: x34+x57 <=1 
C1053: x34+x58-y34_58 <=1 
C1054: x34+x59 <=1 
C1055: x34+x62-y34_62 <=1 
C1056: x34+x63 <=1 
C1057: x34+x64-y34_64 <=1 
C1058: x34+x67-y34_67 <=1 
C1059: x35+x37-y35_37 <=1 
C1060: x35+x38 <=1 
C1061: x35+x39 <=1 
C1062: x35+x40 <=1 
C1063: x35+x41 <=1 
C1064: x35+x43-y35_43 <=1 
C1065: x35+x44-y35_44 <=1 
C1066: x35+x45 <=1 
C1067: x35+x47 <=1 
C1068: x35+x49 <=1 
C1069: x35+x50-y35_50 <=1 
C1070: x35+x51 <=1 
C1071: x35+x52 <=1 
C1072: x35+x53-y35_53 <=1 
C1073: x35+x55 <=1 
C1074: x35+x56-y35_56 <=1 
C1075: x35+x58-y35_58 <=1 
C1076: x35+x59 <=1 
C1077: x35+x61 <=1 
C1078: x35+x62-y35_62 <=1 
C1079: x35+x63-y35_63 <=1 
C1080: x35+x64 <=1 
C1081: x35+x65-y35_65 <=1 
C1082: x35+x66 <=1 
C1083: x35+x67 <=1 
C1084: x36+x37-y36_37 <=1 
C1085: x36+x38-y36_38 <=1 
C1086: x36+x39-y36_39 <=1 
C1087: x36+x40 <=1 
C1088: x36+x41 <=1 
C1089: x36+x42-y36_42 <=1 
C1090: x36+x43 <=1 
C1091: x36+x44 <=1 
C1092: x36+x45-y36_45 <=1 
C1093: x36+x46-y36_46 <=1 
C1094: x36+x47-y36_47 <=1 
C1095: x36+x48 <=1 
C1096: x36+x50-y36_50 <=1 
C1097: x36+x51 <=1 
C1098: x36+x52 <=1 
C1099: x36+x56-y36_56 <=1 
C1100: x36+x57-y36_57 <=1 
C1101: x36+x59 <=1 
C1102: x36+x60 <=1 
C1103: x36+x65-y36_65 <=1 
C1104: x36+x67 <=1 
C1105: x37+x38-y37_38 <=1 
C1106: x37+x39-y37_39 <=1 
C1107: x37+x41 <=1 
C1108: x37+x42-y37_42 <=1 
C1109: x37+x45-y37_45 <=1 
C1110: x37+x47 <=1 
C1111: x37+x48-y37_48 <=1 
C1112: x37+x50 <=1 
C1113: x37+x52 <=1 
C1114: x37+x53-y37_53 <=1 
C1115: x37+x60 <=1 
C1116: x37+x61-y37_61 <=1 
C1117: x37+x62-y37_62 <=1 
C1118: x37+x63-y37_63 <=1 
C1119: x37+x65 <=1 
C1120: x37+x66 <=1 
C1121: x37+x67 <=1 
C1122: x38+x39-y38_39 <=1 
C1123: x38+x40-y38_40 <=1 
C1124: x38+x43-y38_43 <=1 
C1125: x38+x44 <=1 
C1126: x38+x45-y38_45 <=1 
C1127: x38+x48 <=1 
C1128: x38+x50 <=1 
C1129: x38+x51-y38_51 <=1 
C1130: x38+x52 <=1 
C1131: x38+x53-y38_53 <=1 
C1132: x38+x54-y38_54 <=1 
C1133: x38+x56 <=1 
C1134: x38+x58 <=1 
C1135: x38+x60 <=1 
C1136: x38+x61-y38_61 <=1 
C1137: x38+x64-y38_64 <=1 
C1138: x38+x66-y38_66 <=1 
C1139: x38+x67 <=1 
C1140: x39+x40-y39_40 <=1 
C1141: x39+x41 <=1 
C1142: x39+x46-y39_46 <=1 
C1143: x39+x47 <=1 
C1144: x39+x51 <=1 
C1145: x39+x52-y39_52 <=1 
C1146: x39+x53-y39_53 <=1 
C1147: x39+x54-y39_54 <=1 
C1148: x39+x56 <=1 
C1149: x39+x57 <=1 
C1150: x39+x58-y39_58 <=1 
C1151: x39+x59 <=1 
C1152: x39+x61-y39_61 <=1 
C1153: x39+x63-y39_63 <=1 
C1154: x39+x65 <=1 
C1155: x39+x66 <=1 
C1156: x40+x41 <=1 
C1157: x40+x42 <=1 
C1158: x40+x43-y40_43 <=1 
C1159: x40+x45 <=1 
C1160: x40+x47-y40_47 <=1 
C1161: x40+x49-y40_49 <=1 
C1162: x40+x51 <=1 
C1163: x40+x52 <=1 
C1164: x40+x53 <=1 
C1165: x40+x55-y40_55 <=1 
C1166: x40+x56 <=1 
C1167: x40+x57 <=1 
C1168: x40+x58-y40_58 <=1 
C1169: x40+x59-y40_59 <=1 
C1170: x40+x61 <=1 
C1171: x40+x63 <=1 
C1172: x40+x64 <=1 
C1173: x40+x65-y40_65 <=1 
C1174: x40+x67-y40_67 <=1 
C1175: x41+x42-y41_42 <=1 
C1176: x41+x43 <=1 
C1177: x41+x45-y41_45 <=1 
C1178: x41+x50-y41_50 <=1 
C1179: x41+x51-y41_51 <=1 
C1180: x41+x52 <=1 
C1181: x41+x53 <=1 
C1182: x41+x56 <=1 
C1183: x41+x57 <=1 
C1184: x41+x58 <=1 
C1185: x41+x61 <=1 
C1186: x41+x62 <=1 
C1187: x41+x63-y41_63 <=1 
C1188: x41+x64 <=1 
C1189: x41+x66-y41_66 <=1 
C1190: x41+x67 <=1 
C1191: x42+x44-y42_44 <=1 
C1192: x42+x45 <=1 
C1193: x42+x47-y42_47 <=1 
C1194: x42+x49-y42_49 <=1 
C1195: x42+x51 <=1 
C1196: x42+x52 <=1 
C1197: x42+x58 <=1 
C1198: x42+x59-y42_59 <=1 
C1199: x42+x61 <=1 
C1200: x42+x62 <=1 
C1201: x42+x64 <=1 
C1202: x42+x66 <=1 
C1203: x42+x67-y42_67 <=1 
C1204: x43+x44 <=1 
C1205: x43+x45 <=1 
C1206: x43+x49 <=1 
C1207: x43+x51-y43_51 <=1 
C1208: x43+x52-y43_52 <=1 
C1209: x43+x53-y43_53 <=1 
C1210: x43+x54 <=1 
C1211: x43+x55 <=1 
C1212: x43+x56-y43_56 <=1 
C1213: x43+x57-y43_57 <=1 
C1214: x43+x58-y43_58 <=1 
C1215: x43+x59 <=1 
C1216: x43+x61 <=1 
C1217: x43+x62 <=1 
C1218: x43+x66-y43_66 <=1 
C1219: x43+x67-y43_67 <=1 
C1220: x44+x45 <=1 
C1221: x44+x46 <=1 
C1222: x44+x48 <=1 
C1223: x44+x52-y44_52 <=1 
C1224: x44+x55-y44_55 <=1 
C1225: x44+x57-y44_57 <=1 
C1226: x44+x58 <=1 
C1227: x44+x60 <=1 
C1228: x44+x62 <=1 
C1229: x44+x63 <=1 
C1230: x44+x65-y44_65 <=1 
C1231: x44+x66 <=1 
C1232: x45+x46 <=1 
C1233: x45+x47-y45_47 <=1 
C1234: x45+x48-y45_48 <=1 
C1235: x45+x49 <=1 
C1236: x45+x50 <=1 
C1237: x45+x51 <=1 
C1238: x45+x53-y45_53 <=1 
C1239: x45+x54-y45_54 <=1 
C1240: x45+x60-y45_60 <=1 
C1241: x45+x61-y45_61 <=1 
C1242: x45+x63 <=1 
C1243: x45+x66-y45_66 <=1 
C1244: x45+x67 <=1 
C1245: x46+x47 <=1 
C1246: x46+x48-y46_48 <=1 
C1247: x46+x49-y46_49 <=1 
C1248: x46+x50 <=1 
C1249: x46+x53-y46_53 <=1 
C1250: x46+x56-y46_56 <=1 
C1251: x46+x58 <=1 
C1252: x46+x59 <=1 
C1253: x46+x61 <=1 
C1254: x46+x62 <=1 
C1255: x46+x63-y46_63 <=1 
C1256: x46+x66-y46_66 <=1 
C1257: x47+x51-y47_51 <=1 
C1258: x47+x52-y47_52 <=1 
C1259: x47+x53 <=1 
C1260: x47+x55-y47_55 <=1 
C1261: x47+x56-y47_56 <=1 
C1262: x47+x57-y47_57 <=1 
C1263: x47+x59 <=1 
C1264: x47+x61 <=1 
C1265: x47+x63 <=1 
C1266: x47+x64 <=1 
C1267: x47+x65-y47_65 <=1 
C1268: x47+x66 <=1 
C1269: x47+x67 <=1 
C1270: x48+x50 <=1 
C1271: x48+x52 <=1 
C1272: x48+x53 <=1 
C1273: x48+x54-y48_54 <=1 
C1274: x48+x55 <=1 
C1275: x48+x56-y48_56 <=1 
C1276: x48+x57-y48_57 <=1 
C1277: x48+x61 <=1 
C1278: x48+x62 <=1 
C1279: x48+x63 <=1 
C1280: x48+x64-y48_64 <=1 
C1281: x48+x67-y48_67 <=1 
C1282: x49+x50 <=1 
C1283: x49+x51 <=1 
C1284: x49+x53 <=1 
C1285: x49+x54-y49_54 <=1 
C1286: x49+x55 <=1 
C1287: x49+x59-y49_59 <=1 
C1288: x49+x60 <=1 
C1289: x49+x61-y49_61 <=1 
C1290: x49+x63 <=1 
C1291: x49+x65 <=1 
C1292: x50+x51-y50_51 <=1 
C1293: x50+x53 <=1 
C1294: x50+x57 <=1 
C1295: x50+x58-y50_58 <=1 
C1296: x50+x59-y50_59 <=1 
C1297: x50+x60-y50_60 <=1 
C1298: x50+x63 <=1 
C1299: x50+x64-y50_64 <=1 
C1300: x50+x65 <=1 
C1301: x50+x66-y50_66 <=1 
C1302: x51+x52-y51_52 <=1 
C1303: x51+x54 <=1 
C1304: x51+x55 <=1 
C1305: x51+x57 <=1 
C1306: x51+x58 <=1 
C1307: x51+x60 <=1 
C1308: x51+x61-y51_61 <=1 
C1309: x51+x62-y51_62 <=1 
C1310: x51+x64-y51_64 <=1 
C1311: x52+x54-y52_54 <=1 
C1312: x52+x56-y52_56 <=1 
C1313: x52+x57 <=1 
C1314: x52+x58 <=1 
C1315: x52+x59 <=1 
C1316: x52+x61-y52_61 <=1 
C1317: x52+x62 <=1 
C1318: x52+x63 <=1 
C1319: x52+x64 <=1 
C1320: x52+x65-y52_65 <=1 
C1321: x52+x66 <=1 
C1322: x53+x55-y53_55 <=1 
C1323: x53+x56-y53_56 <=1 
C1324: x53+x57 <=1 
C1325: x53+x59-y53_59 <=1 
C1326: x53+x61-y53_61 <=1 
C1327: x53+x62-y53_62 <=1 
C1328: x53+x64 <=1 
C1329: x53+x65 <=1 
C1330: x53+x66 <=1 
C1331: x53+x67-y53_67 <=1 
C1332: x54+x57-y54_57 <=1 
C1333: x54+x58-y54_58 <=1 
C1334: x54+x60-y54_60 <=1 
C1335: x54+x61 <=1 
C1336: x54+x62 <=1 
C1337: x54+x64-y54_64 <=1 
C1338: x54+x65 <=1 
C1339: x54+x66 <=1 
C1340: x55+x56-y55_56 <=1 
C1341: x55+x58-y55_58 <=1 
C1342: x55+x59-y55_59 <=1 
C1343: x55+x61-y55_61 <=1 
C1344: x55+x63 <=1 
C1345: x55+x64-y55_64 <=1 
C1346: x55+x66 <=1 
C1347: x55+x67-y55_67 <=1 
C1348: x56+x58 <=1 
C1349: x56+x59-y56_59 <=1 
C1350: x56+x60-y56_60 <=1 
C1351: x56+x62-y56_62 <=1 
C1352: x56+x64 <=1 
C1353: x56+x67-y56_67 <=1 
C1354: x57+x58-y57_58 <=1 
C1355: x57+x59-y57_59 <=1 
C1356: x57+x61-y57_61 <=1 
C1357: x57+x62-y57_62 <=1 
C1358: x57+x63-y57_63 <=1 
C1359: x57+x66-y57_66 <=1 
C1360: x57+x67 <=1 
C1361: x58+x59 <=1 
C1362: x58+x60 <=1 
C1363: x58+x61 <=1 
C1364: x58+x64-y58_64 <=1 
C1365: x58+x66 <=1 
C1366: x59+x60 <=1 
C1367: x59+x61 <=1 
C1368: x59+x62 <=1 
C1369: x59+x63 <=1 
C1370: x59+x64 <=1 
C1371: x60+x63-y60_63 <=1 
C1372: x60+x64 <=1 
C1373: x60+x66 <=1 
C1374: x60+x67-y60_67 <=1 
C1375: x61+x62-y61_62 <=1 
C1376: x61+x64 <=1 
C1377: x61+x65-y61_65 <=1 
C1378: x61+x66 <=1 
C1379: x61+x67 <=1 
C1380: x62+x65-y62_65 <=1 
C1381: x62+x66 <=1 
C1382: x62+x67-y62_67 <=1 
C1383: x63+x64 <=1 
C1384: x63+x65 <=1 
C1385: x63+x67 <=1 
C1386: x64+x66 <=1 
C1387: x64+x67-y64_67 <=1 
C1388: x66+x67-y66_67 <=1 

binary
x0
x1
x2
x3
x4
x5
x6
x7
x8
x9
x10
x11
x12
x13
x14
x15
x16
x17
x18
x19
x20
x21
x22
x23
x24
x25
x26
x27
x28
x29
x30
x31
x32
x33
x34
x35
x36
x37
x38
x39
x40
x41
x42
x43
x44
x45
x46
x47
x48
x49
x50
x51
x52
x53
x54
x55
x56
x57
x58
x59
x60
x61
x62
x63
x64
x65
x66
x67
